unknown
(model
; cardinality of BoundSet is 3
(declare-sort BoundSet 0)
; rep: @uc_BoundSet_0
; rep: @uc_BoundSet_1
; rep: @uc_BoundSet_2
; cardinality of UnboundSet is 1
(declare-sort UnboundSet 0)
(declare-fun groundTerm_4 () UnboundSet)
(define-fun IsInIslandNation ((BOUND_VARIABLE_467 BoundSet)) Bool true)
(define-fun HasChronicCorruption ((BOUND_VARIABLE_467 BoundSet)) Bool true)
(define-fun HasChronicViolence ((BOUND_VARIABLE_467 BoundSet)) Bool true)
(define-fun HasChildAbuse ((BOUND_VARIABLE_467 BoundSet)) Bool true)
(define-fun HasSexTrafficking ((BOUND_VARIABLE_467 BoundSet)) Bool true)
(define-fun LacksLegalProvisions ((BOUND_VARIABLE_474 BoundSet) (BOUND_VARIABLE_475 BoundSet)) Bool true)
(define-fun Protects ((BOUND_VARIABLE_474 BoundSet) (BOUND_VARIABLE_475 BoundSet)) Bool true)
(define-fun HasSignificantIssues ((BOUND_VARIABLE_474 BoundSet) (BOUND_VARIABLE_475 BoundSet)) Bool false)
)
sat
(model
; cardinality of BoundSet is 1
(declare-sort BoundSet 0)
; rep: @uc_BoundSet_0
; cardinality of UnboundSet is 1
(declare-sort UnboundSet 0)
(declare-fun groundTerm_6 () UnboundSet)
(define-fun IsInIslandNation ((BOUND_VARIABLE_519 BoundSet)) Bool true)
(define-fun HasChronicCorruption ((BOUND_VARIABLE_519 BoundSet)) Bool true)
(define-fun HasChronicViolence ((BOUND_VARIABLE_519 BoundSet)) Bool true)
(define-fun HasChildAbuse ((BOUND_VARIABLE_519 BoundSet)) Bool true)
(define-fun HasSexTrafficking ((BOUND_VARIABLE_519 BoundSet)) Bool true)
(define-fun LacksLegalProvisions ((BOUND_VARIABLE_526 BoundSet) (BOUND_VARIABLE_527 BoundSet)) Bool true)
(define-fun Protects ((BOUND_VARIABLE_526 BoundSet) (BOUND_VARIABLE_527 BoundSet)) Bool true)
(define-fun HasSignificantIssues ((BOUND_VARIABLE_526 BoundSet) (BOUND_VARIABLE_527 BoundSet)) Bool false)
)
